
Gurobi 11.0.3 (linux64) logging started Thu Nov 21 23:06:56 2024

Set parameter LogFile to value "/home/yihong/Coding/OR_SUC/SUC_results_bigM100000_thread4/case24_ieee_rts_theta0.5_epsilon0.05_gurobi_seed1180000_num_gen100_N_WDR100_load_scaling_factor1_proposed_T8quadra_cost.txt"
Set parameter TimeLimit to value 3600
Gurobi Optimizer version 11.0.3 build v11.0.3rc0 (linux64 - "Ubuntu 20.04.6 LTS")

CPU model: AMD EPYC 7532 32-Core Processor, instruction set [SSE2|AVX|AVX2]
Thread count: 64 physical cores, 128 logical processors, using up to 4 threads

Optimize a model with 18854 rows, 10021 columns and 437434 nonzeros
Model fingerprint: 0xf80ce7ec
Model has 800 quadratic constraints
Variable types: 9221 continuous, 800 integer (800 binary)
Coefficient statistics:
  Matrix range     [3e-04, 2e+03]
  QMatrix range    [2e-03, 8e-03]
  QLMatrix range   [4e-01, 6e+01]
  Objective range  [1e+00, 1e+00]
  Bounds range     [1e+00, 1e+00]
  RHS range        [1e+00, 9e+03]
Presolve removed 15594 rows and 4415 columns
Presolve time: 0.12s
Presolved: 3260 rows, 5606 columns, 18167 nonzeros
Presolved model has 800 quadratic constraint(s)
Variable types: 4806 continuous, 800 integer (800 binary)

Root relaxation: objective 1.728706e+04, 2755 iterations, 0.05 seconds (0.06 work units)

    Nodes    |    Current Node    |     Objective Bounds      |     Work
 Expl Unexpl |  Obj  Depth IntInf | Incumbent    BestBd   Gap | It/Node Time

     0     0 17287.0595    0    8          - 17287.0595      -     -    0s
     0     0 96603.1490    0  340          - 96603.1490      -     -    0s
     0     0 96605.9029    0  340          - 96605.9029      -     -    0s
     0     0 180962.959    0  103          - 180962.959      -     -    0s
     0     0 180969.879    0  103          - 180969.879      -     -    0s
     0     0 181059.960    0   70          - 181059.960      -     -    0s
     0     0 181060.538    0   70          - 181060.538      -     -    0s
     0     0 181060.796    0   69          - 181060.796      -     -    0s
     0     0 181060.796    0   69          - 181060.796      -     -    0s
     0     2 181060.953    0   69          - 181060.953      -     -    0s
H  285   278                    181287.12733 181062.945  0.12%   8.4    1s
*  285   278              68    181287.12733 181062.945  0.12%   8.4    1s
H  534   361                    181287.12644 181066.114  0.12%   7.8    2s
H  884   553                    181074.32478 181066.983  0.00%  19.9    3s
*  884   553              62    181074.32478 181066.983  0.00%  20.0    3s

Cutting planes:
  Gomory: 14
  Implied bound: 86
  MIR: 35
  Flow cover: 48
  RLT: 6

Explored 928 nodes (25719 simplex iterations) in 4.16 seconds (3.62 work units)
Thread count was 4 (of 128 available processors)

Solution count 2: 181074 181287 

Optimal solution found (tolerance 1.00e-03)
Warning: max constraint violation (4.9313e-08) exceeds tolerance
Best objective 1.810743247845e+05, best bound 1.810669833736e+05, gap 0.0041%
